c n orig vars 74
p cnf 101 111
-75 0
76 -55 0
76 -29 0
76 -15 0
76 -70 0
-76 55 29 15 70 0
-77 82 0
-77 96 0
-77 76 0
77 -82 -96 -76 0
-78 87 0
-78 92 0
78 -87 -92 0
79 -55 0
79 -1 0
79 -45 0
79 -50 0
-79 55 1 45 50 0
80 -55 0
80 -29 0
-80 55 29 0
81 -2 0
81 -63 0
81 -91 0
-81 2 63 91 0
82 -30 0
82 -55 0
82 -29 0
82 -70 0
-82 30 55 29 70 0
83 -33 0
83 -80 0
83 -74 0
-83 33 80 74 0
84 -72 0
84 -14 0
-84 72 14 0
-85 101 0
-85 86 0
-85 99 0
85 -101 -86 -99 0
75 -16 0
75 -36 0
-75 16 36 0
86 -67 0
86 -55 0
86 -69 0
86 -29 0
-86 67 55 69 29 0
87 -55 0
87 -5 0
87 -1 0
87 -4 0
-87 55 5 1 4 0
88 -84 0
88 -89 0
-88 84 89 0
89 -57 0
89 -54 0
-89 57 54 0
-90 100 0
-90 94 0
-90 79 0
90 -100 -94 -79 0
91 -55 0
91 -1 0
-91 55 1 0
92 -55 0
92 -1 0
92 -4 0
92 -26 0
-92 55 1 4 26 0
93 -46 0
93 -91 0
93 -49 0
-93 46 91 49 0
94 -55 0
94 -1 0
94 -18 0
94 -45 0
-94 55 1 18 45 0
95 -24 0
95 -80 0
95 -71 0
-95 24 80 71 0
96 -55 0
96 -29 0
96 -47 0
96 -70 0
-96 55 29 47 70 0
-97 78 0
-97 90 0
97 -78 -90 0
-98 77 0
-98 85 0
98 -77 -85 0
99 -55 0
99 -44 0
99 -29 0
99 -69 0
-99 55 44 29 69 0
100 -55 0
100 -1 0
100 -12 0
100 -45 0
-100 55 1 12 45 0
101 -55 0
101 -29 0
101 -6 0
101 -69 0
-101 55 29 6 69 0
